0.0 94.0 73.0 15.0 91.0 62.0 59.0 23.0 2.0 41.0 
94.0 0.0 14.0 32.0 74.0 40.0 77.0 13.0 96.0 34.0 
73.0 14.0 0.0 78.0 16.0 44.0 84.0 3.0 26.0 66.0 
15.0 32.0 78.0 0.0 73.0 18.0 12.0 41.0 26.0 5.0 
91.0 74.0 16.0 73.0 0.0 80.0 46.0 14.0 68.0 8.0 
62.0 40.0 44.0 18.0 80.0 0.0 71.0 82.0 67.0 8.0 
59.0 77.0 84.0 12.0 46.0 71.0 0.0 12.0 100.0 44.0 
23.0 13.0 3.0 41.0 14.0 82.0 12.0 0.0 78.0 20.0 
2.0 96.0 26.0 26.0 68.0 67.0 100.0 78.0 0.0 60.0 
41.0 34.0 66.0 5.0 8.0 8.0 44.0 20.0 60.0 0.0 
